% Generated by MiniZinc 2.9.3
% Solver library: /home/icwmmarijnisse/Pumpkin/minizinc/lib
% Command line invocation: minizinc --compile --fzn ./instance.fzn --ozn ./instance.ozn --solver pumpkin ../../../../benchmarks/models/rcpsp/rcpsp_smaller.mzn ../../../../benchmarks/models/rcpsp/J120_20_8.dzn 

predicate pumpkin_cumulative(array [int] of var int: s,array [int] of int: d,array [int] of int: r,int: b);
array [1..2] of int: X_INTRODUCED_139_ = [1,-1];
array [1..14] of int: X_INTRODUCED_146_ = [6,6,9,8,9,3,6,1,6,10,7,8,6,10];
array [1..14] of int: X_INTRODUCED_147_ = [7,9,3,3,8,6,10,5,7,1,8,2,10,6];
array [1..14] of int: X_INTRODUCED_149_ = [5,10,2,10,6,4,4,6,3,1,10,9,6,3];
array [1..14] of int: X_INTRODUCED_150_ = [4,7,5,5,8,6,1,7,5,10,7,3,3,2];
array [1..14] of int: X_INTRODUCED_151_ = [10,9,2,5,5,10,7,5,3,9,5,7,2,1];
var 0..672: X_INTRODUCED_16_;
var 0..672: X_INTRODUCED_17_;
var 0..672: X_INTRODUCED_18_;
var 0..672: X_INTRODUCED_19_;
var 0..672: X_INTRODUCED_20_;
var 0..672: X_INTRODUCED_21_;
var 0..672: X_INTRODUCED_22_;
var 0..672: X_INTRODUCED_23_;
var 0..672: X_INTRODUCED_24_;
var 0..672: X_INTRODUCED_25_;
var 0..672: X_INTRODUCED_26_;
var 0..672: X_INTRODUCED_27_;
var 0..672: X_INTRODUCED_28_;
var 0..672: X_INTRODUCED_29_;
var 0..672: X_INTRODUCED_30_;
var 0..672: X_INTRODUCED_31_;
var 0..672: X_INTRODUCED_32_;
var 0..672: X_INTRODUCED_33_;
var 0..672: X_INTRODUCED_34_;
var 0..672: X_INTRODUCED_35_;
var 0..672: X_INTRODUCED_36_;
var 0..672: X_INTRODUCED_37_;
var 0..672: X_INTRODUCED_38_;
var 0..672: X_INTRODUCED_39_;
var 0..672: X_INTRODUCED_40_;
var 0..672: X_INTRODUCED_41_;
var 0..672: X_INTRODUCED_42_;
var 0..672: X_INTRODUCED_43_;
var 0..672: X_INTRODUCED_44_;
var 0..672: X_INTRODUCED_45_;
var 0..672: X_INTRODUCED_46_;
var 0..672: X_INTRODUCED_47_;
var 0..672: X_INTRODUCED_48_;
var 0..672: X_INTRODUCED_49_;
var 0..672: X_INTRODUCED_50_;
var 0..672: X_INTRODUCED_51_;
var 0..672: X_INTRODUCED_52_;
var 0..672: X_INTRODUCED_53_;
var 0..672: X_INTRODUCED_54_;
var 0..672: X_INTRODUCED_55_;
var 0..672: X_INTRODUCED_56_;
var 0..672: X_INTRODUCED_57_;
var 0..672: X_INTRODUCED_58_;
var 0..672: X_INTRODUCED_59_;
var 0..672: X_INTRODUCED_60_;
var 0..672: X_INTRODUCED_61_;
var 0..672: X_INTRODUCED_62_;
var 0..672: X_INTRODUCED_63_;
var 0..672: X_INTRODUCED_64_;
var 0..672: X_INTRODUCED_65_;
var 0..672: X_INTRODUCED_66_;
var 0..672: X_INTRODUCED_67_;
var 0..672: X_INTRODUCED_68_;
var 0..672: X_INTRODUCED_69_;
var 0..672: X_INTRODUCED_70_;
var 0..672: X_INTRODUCED_71_;
var 0..672: X_INTRODUCED_72_;
var 0..672: X_INTRODUCED_73_;
var 0..672: X_INTRODUCED_74_;
var 0..672: X_INTRODUCED_75_;
var 0..672: X_INTRODUCED_76_;
var 0..672: X_INTRODUCED_77_;
var 0..672: X_INTRODUCED_78_;
var 0..672: X_INTRODUCED_79_;
var 0..672: X_INTRODUCED_80_;
var 0..672: X_INTRODUCED_81_;
var 0..672: X_INTRODUCED_82_;
var 0..672: X_INTRODUCED_83_;
var 0..672: X_INTRODUCED_84_;
var 0..672: X_INTRODUCED_85_;
var 0..672: X_INTRODUCED_86_;
var 0..672: X_INTRODUCED_87_;
var 0..672: X_INTRODUCED_88_;
var 0..672: X_INTRODUCED_89_;
var 0..672: X_INTRODUCED_90_;
var 0..672: X_INTRODUCED_91_;
var 0..672: X_INTRODUCED_92_;
var 0..672: X_INTRODUCED_93_;
var 0..672: X_INTRODUCED_94_;
var 0..672: X_INTRODUCED_95_;
var 0..672: X_INTRODUCED_96_;
var 0..672: X_INTRODUCED_97_;
var 0..672: X_INTRODUCED_98_;
var 0..672: X_INTRODUCED_99_;
var 0..672: X_INTRODUCED_100_;
var 0..672: X_INTRODUCED_101_;
var 0..672: X_INTRODUCED_102_;
var 0..672: X_INTRODUCED_103_;
var 0..672: X_INTRODUCED_104_;
var 0..672: X_INTRODUCED_105_;
var 0..672: X_INTRODUCED_106_;
var 0..672: X_INTRODUCED_107_;
var 0..672: X_INTRODUCED_108_;
var 0..672: X_INTRODUCED_109_;
var 0..672: X_INTRODUCED_110_;
var 0..672: X_INTRODUCED_111_;
var 0..672: X_INTRODUCED_112_;
var 0..672: X_INTRODUCED_113_;
var 0..672: X_INTRODUCED_114_;
var 0..672: X_INTRODUCED_115_;
var 0..672: X_INTRODUCED_116_;
var 0..672: X_INTRODUCED_117_;
var 0..672: X_INTRODUCED_118_;
var 0..672: X_INTRODUCED_119_;
var 0..672: X_INTRODUCED_120_;
var 0..672: X_INTRODUCED_121_;
var 0..672: X_INTRODUCED_122_;
var 0..672: X_INTRODUCED_123_;
var 0..672: X_INTRODUCED_124_;
var 0..672: X_INTRODUCED_125_;
var 0..672: X_INTRODUCED_126_;
var 0..672: X_INTRODUCED_127_;
var 0..672: X_INTRODUCED_128_;
var 0..672: X_INTRODUCED_129_;
var 0..672: X_INTRODUCED_130_;
var 0..672: X_INTRODUCED_131_;
var 0..672: X_INTRODUCED_132_;
var 0..672: X_INTRODUCED_133_;
var 0..672: X_INTRODUCED_134_;
var 0..672: X_INTRODUCED_135_;
var 0..673: Objective:: output_var;
array [1..120] of var int: Start:: output_array([1..120]) = [X_INTRODUCED_16_,X_INTRODUCED_17_,X_INTRODUCED_18_,X_INTRODUCED_19_,X_INTRODUCED_20_,X_INTRODUCED_21_,X_INTRODUCED_22_,X_INTRODUCED_23_,X_INTRODUCED_24_,X_INTRODUCED_25_,X_INTRODUCED_26_,X_INTRODUCED_27_,X_INTRODUCED_28_,X_INTRODUCED_29_,X_INTRODUCED_30_,X_INTRODUCED_31_,X_INTRODUCED_32_,X_INTRODUCED_33_,X_INTRODUCED_34_,X_INTRODUCED_35_,X_INTRODUCED_36_,X_INTRODUCED_37_,X_INTRODUCED_38_,X_INTRODUCED_39_,X_INTRODUCED_40_,X_INTRODUCED_41_,X_INTRODUCED_42_,X_INTRODUCED_43_,X_INTRODUCED_44_,X_INTRODUCED_45_,X_INTRODUCED_46_,X_INTRODUCED_47_,X_INTRODUCED_48_,X_INTRODUCED_49_,X_INTRODUCED_50_,X_INTRODUCED_51_,X_INTRODUCED_52_,X_INTRODUCED_53_,X_INTRODUCED_54_,X_INTRODUCED_55_,X_INTRODUCED_56_,X_INTRODUCED_57_,X_INTRODUCED_58_,X_INTRODUCED_59_,X_INTRODUCED_60_,X_INTRODUCED_61_,X_INTRODUCED_62_,X_INTRODUCED_63_,X_INTRODUCED_64_,X_INTRODUCED_65_,X_INTRODUCED_66_,X_INTRODUCED_67_,X_INTRODUCED_68_,X_INTRODUCED_69_,X_INTRODUCED_70_,X_INTRODUCED_71_,X_INTRODUCED_72_,X_INTRODUCED_73_,X_INTRODUCED_74_,X_INTRODUCED_75_,X_INTRODUCED_76_,X_INTRODUCED_77_,X_INTRODUCED_78_,X_INTRODUCED_79_,X_INTRODUCED_80_,X_INTRODUCED_81_,X_INTRODUCED_82_,X_INTRODUCED_83_,X_INTRODUCED_84_,X_INTRODUCED_85_,X_INTRODUCED_86_,X_INTRODUCED_87_,X_INTRODUCED_88_,X_INTRODUCED_89_,X_INTRODUCED_90_,X_INTRODUCED_91_,X_INTRODUCED_92_,X_INTRODUCED_93_,X_INTRODUCED_94_,X_INTRODUCED_95_,X_INTRODUCED_96_,X_INTRODUCED_97_,X_INTRODUCED_98_,X_INTRODUCED_99_,X_INTRODUCED_100_,X_INTRODUCED_101_,X_INTRODUCED_102_,X_INTRODUCED_103_,X_INTRODUCED_104_,X_INTRODUCED_105_,X_INTRODUCED_106_,X_INTRODUCED_107_,X_INTRODUCED_108_,X_INTRODUCED_109_,X_INTRODUCED_110_,X_INTRODUCED_111_,X_INTRODUCED_112_,X_INTRODUCED_113_,X_INTRODUCED_114_,X_INTRODUCED_115_,X_INTRODUCED_116_,X_INTRODUCED_117_,X_INTRODUCED_118_,X_INTRODUCED_119_,X_INTRODUCED_120_,X_INTRODUCED_121_,X_INTRODUCED_122_,X_INTRODUCED_123_,X_INTRODUCED_124_,X_INTRODUCED_125_,X_INTRODUCED_126_,X_INTRODUCED_127_,X_INTRODUCED_128_,X_INTRODUCED_129_,X_INTRODUCED_130_,X_INTRODUCED_131_,X_INTRODUCED_132_,X_INTRODUCED_133_,X_INTRODUCED_134_,X_INTRODUCED_135_];
array [1..14] of var int: X_INTRODUCED_148_ ::var_is_introduced  = [X_INTRODUCED_16_,X_INTRODUCED_17_,X_INTRODUCED_18_,X_INTRODUCED_19_,X_INTRODUCED_20_,X_INTRODUCED_21_,X_INTRODUCED_22_,X_INTRODUCED_23_,X_INTRODUCED_24_,X_INTRODUCED_25_,X_INTRODUCED_26_,X_INTRODUCED_27_,X_INTRODUCED_28_,X_INTRODUCED_29_];
array [1..15] of var int: X_INTRODUCED_152_ ::var_is_introduced  = [X_INTRODUCED_16_,X_INTRODUCED_17_,X_INTRODUCED_18_,X_INTRODUCED_19_,X_INTRODUCED_20_,X_INTRODUCED_21_,X_INTRODUCED_22_,X_INTRODUCED_23_,X_INTRODUCED_24_,X_INTRODUCED_25_,X_INTRODUCED_26_,X_INTRODUCED_27_,X_INTRODUCED_28_,X_INTRODUCED_29_,Objective];
constraint int_lin_le(X_INTRODUCED_139_,[X_INTRODUCED_17_,X_INTRODUCED_19_],-9);
constraint int_lin_le(X_INTRODUCED_139_,[X_INTRODUCED_17_,X_INTRODUCED_22_],-9);
constraint int_lin_le(X_INTRODUCED_139_,[X_INTRODUCED_18_,X_INTRODUCED_27_],-3);
constraint int_lin_le(X_INTRODUCED_139_,[X_INTRODUCED_19_,X_INTRODUCED_20_],-3);
constraint int_lin_le(X_INTRODUCED_139_,[X_INTRODUCED_20_,X_INTRODUCED_21_],-8);
constraint int_lin_le(X_INTRODUCED_139_,[X_INTRODUCED_21_,X_INTRODUCED_23_],-6);
constraint int_lin_le(X_INTRODUCED_139_,[X_INTRODUCED_22_,X_INTRODUCED_24_],-10);
constraint int_lin_le(X_INTRODUCED_139_,[X_INTRODUCED_22_,X_INTRODUCED_25_],-10);
constraint int_lin_le(X_INTRODUCED_139_,[X_INTRODUCED_23_,X_INTRODUCED_26_],-5);
constraint int_lin_le(X_INTRODUCED_139_,[X_INTRODUCED_23_,X_INTRODUCED_28_],-5);
constraint int_lin_le(X_INTRODUCED_139_,[X_INTRODUCED_23_,X_INTRODUCED_29_],-5);
constraint pumpkin_cumulative(X_INTRODUCED_148_,X_INTRODUCED_147_,X_INTRODUCED_146_,42);
constraint pumpkin_cumulative(X_INTRODUCED_148_,X_INTRODUCED_147_,X_INTRODUCED_149_,50);
constraint pumpkin_cumulative(X_INTRODUCED_148_,X_INTRODUCED_147_,X_INTRODUCED_150_,42);
constraint pumpkin_cumulative(X_INTRODUCED_148_,X_INTRODUCED_147_,X_INTRODUCED_151_,50);
solve :: int_search(X_INTRODUCED_152_,smallest,indomain_min,complete) minimize Objective;
